<instance format="XCSP3" type="CSP">
  <variables>
    <array id="X" size="[2][6]"> 1..5 </array>
  </variables>
  <constraints>
    <block class="Variable comparison Constant">
      <intension> eq(X[0][0],3) </intension>
      <intension> ne(X[0][1],1) </intension>
      <intension> lt(X[0][2],2) </intension>
      <intension> le(X[0][3],1) </intension>
      <intension> gt(X[0][4],3) </intension>
      <intension> ge(X[0][5],5) </intension>
    </block>
    <block class="Constant comparison Variable">
      <intension> eq(4,X[1][0]) </intension>
      <intension> ne(1,X[1][1]) </intension>
      <intension> lt(2,X[1][2]) </intension>
      <intension> le(4,X[1][3]) </intension>
      <intension> gt(2,X[1][4]) </intension>
      <intension> ge(1,X[1][5]) </intension>
    </block>
  </constraints>
</instance>
